Sun 20 May 09:54:11 CEST 2018
CPXPARAM_TimeLimit                               45
CPXPARAM_Threads                                 4
CPXPARAM_MIP_Strategy_CallbackReducedLP          0
Tried aggregator 9 times.
MIP Presolve eliminated 5335 rows and 4386 columns.
MIP Presolve modified 2963 coefficients.
Aggregator did 7475 substitutions.
Reduced MIP has 12749 rows, 12370 columns, and 31704 nonzeros.
Reduced MIP has 10974 binaries, 12 generals, 0 SOSs, and 2641 indicators.
Presolve time = 0.18 sec. (304.72 ticks)
Probing time = 0.41 sec. (127.89 ticks)
Tried aggregator 3 times.
Aggregator did 5651 substitutions.
Reduced MIP has 7098 rows, 6719 columns, and 20402 nonzeros.
Reduced MIP has 5323 binaries, 1396 generals, 0 SOSs, and 2641 indicators.
Presolve time = 0.05 sec. (58.34 ticks)
Probing time = 0.11 sec. (56.71 ticks)
Tried aggregator 1 time.
Reduced MIP has 7098 rows, 6719 columns, and 20402 nonzeros.
Reduced MIP has 5323 binaries, 1396 generals, 0 SOSs, and 2641 indicators.
Presolve time = 0.02 sec. (19.67 ticks)
Probing time = 0.01 sec. (6.76 ticks)
Clique table members: 315753.
MIP emphasis: balance optimality and feasibility.
MIP search method: dynamic search.
Parallel mode: deterministic, using up to 4 threads.
Root relaxation solution time = 0.03 sec. (29.49 ticks)

        Nodes                                         Cuts/
   Node  Left     Objective  IInf  Best Integer    Best Bound    ItCnt     Gap

      0     0        0.0000  2830                      0.0000      307         
*     0+    0                           17.0000        0.0000           100.00%
      0     0        0.0000  2526       17.0000 Cliques: 1874      813   94.12%
*     0+    0                           16.0000        1.0000            93.75%
      0     0        0.0000  2568       16.0000 Cliques: 1874     1171   93.75%
*     0+    0                           14.0000        1.0000            92.86%
*     0+    0                            5.0000        1.0000            80.00%
*     0+    0                            3.0000        1.0000            66.67%
      0     0        cutoff              3.0000        1.0000     1209   66.67%
Elapsed time = 20.02 sec. (14478.31 ticks, tree = 0.01 MB, solutions = 5)

Clique cuts applied:  3748

Root node processing (before b&c):
  Real time             =   20.03 sec. (14479.87 ticks)
Parallel b&c, 4 threads:
  Real time             =    0.01 sec. (2.72 ticks)
  Sync time (average)   =    0.00 sec.
  Wait time (average)   =    0.00 sec.
                          ------------
Total (root+branch&cut) =   20.04 sec. (14482.60 ticks)
   | W
 L | 0 1  2  3  4  5 6 7 8 9 10 
--------------------------------
 0 | 3 .  9 11 11 11 8 6 7 4  5 
 1 | 3 . 10 11 11 11 2 . . 4  1 
 2 | . .  . 11 11 11 2 . . .  1 
 3 | . .  .  .  .  . . . . .  . 
 4 | . .  .  .  .  . . . . .  . 
 5 | . .  .  .  .  . . . . .  . 
 6 | . .  .  .  .  . . . . .  . 
 7 | . .  .  .  .  . . . . .  . 
 8 | . .  .  .  .  . . . . .  . 
 9 | . .  .  .  .  . . . . .  . 
10 | . .  .  .  .  . . . . .  . 
11 | . .  .  .  .  . . . . .  . 
12 | . .  .  .  .  . . . . .  . 
13 | . .  .  .  .  . . . . .  . 
14 | . .  .  .  .  . . . . .  . 
15 | . .  .  .  .  . . . . .  . 
16 | . .  .  .  .  . . . . .  . 

Boxes' corners:       (w,l)
    Box  1 is at 
        top left     (10,1)
        bottom right (10,2)

    Box  2 is at 
        top left     (6,1)
        bottom right (6,2)

    Box  3 is at 
        top left     (0,0)
        bottom right (0,1)

    Box  4 is at 
        top left     (9,0)
        bottom right (9,1)

    Box  5 is at 
        top left     (10,0)
        bottom right (10,0)

    Box  6 is at 
        top left     (7,0)
        bottom right (7,0)

    Box  7 is at 
        top left     (8,0)
        bottom right (8,0)

    Box  8 is at 
        top left     (6,0)
        bottom right (6,0)

    Box  9 is at 
        top left     (2,0)
        bottom right (2,0)

    Box 10 is at 
        top left     (2,1)
        bottom right (2,1)

    Box 11 is at 
        top left     (3,0)
        bottom right (5,2)

    Roll length used: 3
In 59.02 seconds
